# Solution for model GasLib-40
# Objective value = 1.4007853738675871e+01
loadshed[innode_1] 0
loadshed[innode_2] 0
loadshed[innode_3] 0
loadshed[innode_4] 0
loadshed[innode_5] 0
loadshed[innode_6] 0
loadshed[innode_7] 0
loadshed[innode_8] 0
loadshed[source_1] -2.9923423061226395e-01
loadshed[source_2] 9.0467855391410890e-02
loadshed[source_3] 2.9737304942980380e-01
loadshed[sink_1] 0
loadshed[sink_2] 0
loadshed[sink_3] 0
loadshed[sink_4] 0
loadshed[sink_5] 0
loadshed[sink_6] 0
loadshed[sink_7] 0
loadshed[sink_8] 0
loadshed[sink_9] 0
loadshed[sink_10] 0
loadshed[sink_11] 0
loadshed[sink_12] 0.856531184020945
loadshed[sink_13] 0
loadshed[sink_14] 0
loadshed[sink_15] 0
loadshed[sink_16] 0
loadshed[sink_17] 0
loadshed[sink_18] 0
loadshed[sink_19] 0
loadshed[sink_20] 0
loadshed[sink_21] 0
loadshed[sink_22] 0
loadshed[sink_23] 0
loadshed[sink_24] 0
loadshed[sink_25] 0
loadshed[sink_26] 0
loadshed[sink_27] 0
loadshed[sink_28] 0
loadshed[sink_29] 0
flow[source_1,sink_3] 2.0539630041589021e+02
flow[innode_1,sink_16] 1.6354166666666970e+01
flow[innode_6,sink_13] 3.4006768768849085e+00
flow[sink_13,sink_14] -1.2953489789781759e+01
flow[sink_14,sink_10] -2.9307656456448427e+01
flow[sink_25,sink_26] 2.3130464626132394e+02
flow[sink_26,sink_9] 1.3022305746511606e+02
flow[sink_9,sink_18] 1.1386889079844939e+02
flow[sink_26,sink_4] 8.4727422129541168e+01
flow[sink_4,sink_20] 2.2770907567017538e+01
flow[sink_18,sink_6] 9.7514724131782714e+01
flow[sink_25,innode_8] -1.7268796708255383e+02
flow[sink_6,sink_7] 4.8452224131782259e+01
flow[sink_6,sink_22] 3.2708333333333641e+01
flow[sink_7,sink_24] 3.5054646261324137e+01
flow[sink_22,sink_1] 1.6354166666666970e+01
flow[sink_24,sink_21] 1.8700479594657466e+01
flow[sink_21,sink_12] 2.3463129279907964e+00
flow[sink_7,sink_5] -2.9565887962081376e+00
flow[sink_5,sink_17] -1.9310755462874681e+01
flow[sink_17,sink_4] -4.5602347895856973e+01
flow[sink_17,sink_8] 9.93742576631578
flow[sink_3,sink_23] 16.3541666666697
flow[sink_8,sink_20] -6.4167409003508737e+00
flow[sink_25,sink_20] 0
flow[sink_25,sink_15] -7.8371522722321913e+01
flow[sink_15,sink_29] 0
flow[sink_29,sink_28] 1.6354166666667879e+01
flow[sink_29,sink_2] 1.1107985605565526e+02
flow[sink_2,sink_15] 9.4725689388988584e+01
flow[sink_29,innode_7] -1.4378818938898979e+02
flow[innode_4,sink_19] 9.4724323123115553e+01
flow[sink_19,innode_3] 3.8244305550496421e+01
flow[innode_4,innode_5] 1.6354166666679703e+01
flow[sink_27,innode_5] -1.6354166666679703e+01
flow[sink_27,sink_19] 0
flow[sink_10,sink_11] 3.2708333333333641e+01
flow[sink_10,innode_2] -4.0125850905952312e+01
flow[sink_10,innode_3] -3.8244305550496421e+01
flow[innode_6,sink_25] -3.4006768768849085e+00
flow[sink_11,innode_1] 1.6354166666666970e+01
flow[sink_19,innode_2] 4.0125850905952312e+01
flow[source_3,innode_4] 1.1107848978979526e+02
flow[source_2,innode_7] 1.4378818938898979e+02
flow[sink_3,innode_8] 1.7268796708255383e+02
pressure[innode_1] 7.4903208058156579e+01
pressure[innode_2] 7.7175726311331644e+01
pressure[innode_3] 7.7091038627387874e+01
pressure[innode_4] 81.01325
pressure[innode_5] 8.1002000741808772e+01
pressure[innode_6] 7.3664264357542876e+01
pressure[innode_7] 81.01325
pressure[innode_8] 8.0326688631940456e+01
pressure[source_1] 81.01325
pressure[source_2] 81.01325
pressure[source_3] 81.01325
pressure[sink_1] 4.0754300932351043e+01
pressure[sink_2] 7.4353701108318461e+01
pressure[sink_3] 8.0326688631940456e+01
pressure[sink_4] 4.6601150225135989e+01
pressure[sink_5] 4.3419867157815837e+01
pressure[sink_6] 4.2855378542738414e+01
pressure[sink_7] 4.2190244998031410e+01
pressure[sink_8] 4.4483413966690016e+01
pressure[sink_9] 4.9579427873296829e+01
pressure[sink_10] 7.5054909365760125e+01
pressure[sink_11] 7.4903208058156579e+01
pressure[sink_12] 1.01325
pressure[sink_13] 7.3645516994226512e+01
pressure[sink_14] 7.3668698367598680e+01
pressure[sink_15] 7.4044442609669076e+01
pressure[sink_16] 73.8815582233389
pressure[sink_17] 4.4858378857650408e+01
pressure[sink_18] 4.5459312016546207e+01
pressure[sink_19] 7.7175726311331644e+01
pressure[sink_20] 4.4930570567077986e+01
pressure[sink_21] 1.8481965539858756e+00
pressure[sink_22] 4.1818070074706057e+01
pressure[sink_23] 8.0161970620280670e+01
pressure[sink_24] 2.0552869906790021e+00
pressure[sink_25] 7.3664264357542876e+01
pressure[sink_26] 5.7373613959043588e+01
pressure[sink_27] 8.0866291377726043e+01
pressure[sink_28] 76.8721969498121
pressure[sink_29] 7.7167479223429282e+01
interdiction[source_1,sink_3] 0
interdiction[innode_1,sink_16] 0
interdiction[innode_6,sink_13] 0
interdiction[sink_13,sink_14] 0
interdiction[sink_14,sink_10] 0
interdiction[sink_25,sink_26] 0
interdiction[sink_26,sink_9] 0
interdiction[sink_9,sink_18] 0
interdiction[sink_26,sink_4] 0
interdiction[sink_4,sink_20] 0
interdiction[sink_18,sink_6] 0
interdiction[sink_25,innode_8] 0
interdiction[sink_6,sink_7] 0
interdiction[sink_6,sink_22] 0
interdiction[sink_7,sink_24] 0
interdiction[sink_22,sink_1] 0
interdiction[sink_24,sink_21] 0
interdiction[sink_21,sink_12] 0
interdiction[sink_7,sink_5] 0
interdiction[sink_5,sink_17] 0
interdiction[sink_17,sink_4] 0
interdiction[sink_17,sink_8] 0
interdiction[sink_3,sink_23] 0
interdiction[sink_8,sink_20] 0
interdiction[sink_25,sink_20] 1
interdiction[sink_25,sink_15] 0
interdiction[sink_15,sink_29] 1
interdiction[sink_29,sink_28] 0
interdiction[sink_29,sink_2] 0
interdiction[sink_2,sink_15] 0
interdiction[sink_29,innode_7] 0
interdiction[innode_4,sink_19] 0
interdiction[sink_19,innode_3] 0
interdiction[innode_4,innode_5] 0
interdiction[sink_27,innode_5] 0
interdiction[sink_27,sink_19] 1
interdiction[sink_10,sink_11] 0
interdiction[sink_10,innode_2] 0
interdiction[sink_10,innode_3] 0
interdiction[innode_6,sink_25] 0
interdiction[sink_11,innode_1] 0
interdiction[sink_19,innode_2] 0
interdiction[source_3,innode_4] 0
interdiction[source_2,innode_7] 0
interdiction[sink_3,innode_8] 0
WCcheckFlow[source_1,sink_3] 39
WCcheckFlow[innode_1,sink_16] 1
WCcheckFlow[innode_6,sink_13] 13
WCcheckFlow[sink_13,sink_14] 12
WCcheckFlow[sink_14,sink_10] 11
WCcheckFlow[sink_25,sink_26] 15
WCcheckFlow[sink_26,sink_9] 12
WCcheckFlow[sink_9,sink_18] 11
WCcheckFlow[sink_26,sink_4] 2
WCcheckFlow[sink_4,sink_20] 1
WCcheckFlow[sink_18,sink_6] 10
WCcheckFlow[sink_25,innode_8] -36
WCcheckFlow[sink_6,sink_7] 7
WCcheckFlow[sink_6,sink_22] 2
WCcheckFlow[sink_7,sink_24] 3
WCcheckFlow[sink_22,sink_1] 1
WCcheckFlow[sink_24,sink_21] 2
WCcheckFlow[sink_21,sink_12] 1
WCcheckFlow[sink_7,sink_5] 3
WCcheckFlow[sink_5,sink_17] 2
WCcheckFlow[sink_17,sink_4] 0
WCcheckFlow[sink_17,sink_8] 1
WCcheckFlow[sink_3,sink_23] 1
WCcheckFlow[sink_8,sink_20] 0
WCcheckFlow[sink_25,sink_20] 0
WCcheckFlow[sink_25,sink_15] 6
WCcheckFlow[sink_15,sink_29] 0
WCcheckFlow[sink_29,sink_28] 1
WCcheckFlow[sink_29,sink_2] -4
WCcheckFlow[sink_2,sink_15] -5
WCcheckFlow[sink_29,innode_7] 2
WCcheckFlow[innode_4,sink_19] -4
WCcheckFlow[sink_19,innode_3] -5
WCcheckFlow[innode_4,innode_5] 2
WCcheckFlow[sink_27,innode_5] -1
WCcheckFlow[sink_27,sink_19] 0
WCcheckFlow[sink_10,sink_11] 3
WCcheckFlow[sink_10,innode_2] 1
WCcheckFlow[sink_10,innode_3] 6
WCcheckFlow[innode_6,sink_25] -14
WCcheckFlow[sink_11,innode_1] 2
WCcheckFlow[sink_19,innode_2] 0
WCcheckFlow[source_3,innode_4] -1
WCcheckFlow[source_2,innode_7] -1
WCcheckFlow[sink_3,innode_8] 37
